c Generated planar graph
p edge 161 295
e 1 85
e 1 111
e 1 133
e 2 22
e 2 75
e 2 80
e 3 98
e 3 128
e 3 145
e 3 152
e 4 14
e 4 38
e 4 41
e 4 100
e 4 104
e 4 143
e 5 8
e 5 13
e 5 54
e 6 108
e 6 116
e 7 81
e 7 98
e 7 152
e 8 67
e 8 95
e 8 105
e 8 115
e 8 155
e 8 161
e 9 17
e 9 87
e 9 101
e 9 121
e 10 47
e 10 110
e 10 140
e 10 153
e 11 34
e 11 58
e 11 63
e 11 67
e 11 91
e 11 130
e 12 21
e 12 95
e 12 100
e 13 15
e 14 16
e 14 27
e 14 34
e 14 38
e 14 130
e 15 41
e 15 57
e 15 100
e 15 113
e 15 137
e 15 142
e 16 68
e 16 104
e 16 147
e 17 83
e 17 132
e 18 43
e 18 131
e 19 65
e 19 74
e 19 99
e 19 103
e 19 127
e 19 129
e 20 23
e 20 82
e 20 83
e 20 89
e 20 132
e 20 141
e 21 95
e 22 51
e 22 80
e 22 150
e 23 40
e 23 61
e 23 86
e 23 127
e 23 148
e 24 30
e 24 60
e 24 78
e 24 93
e 24 124
e 24 131
e 25 45
e 25 66
e 25 76
e 26 35
e 26 83
e 26 135
e 27 67
e 27 139
e 27 151
e 28 92
e 29 96
e 29 159
e 31 36
e 31 81
e 31 152
e 32 90
e 32 114
e 33 60
e 33 104
e 33 150
e 34 97
e 35 74
e 35 83
e 35 125
e 36 152
e 36 154
e 37 49
e 37 62
e 37 119
e 38 140
e 39 64
e 39 71
e 39 94
e 39 140
e 40 61
e 40 154
e 41 117
e 41 138
e 42 155
e 42 158
e 43 126
e 44 100
e 44 121
e 44 132
e 45 66
e 46 69
e 46 105
e 46 118
e 46 154
e 47 59
e 47 64
e 47 106
e 47 153
e 48 72
e 48 98
e 48 102
e 48 103
e 49 62
e 49 118
e 49 154
e 50 83
e 50 87
e 50 92
e 50 99
e 50 135
e 51 93
e 51 96
e 51 109
e 52 148
e 53 60
e 53 69
e 53 78
e 53 101
e 53 121
e 53 154
e 54 137
e 55 56
e 55 63
e 55 91
e 56 63
e 57 63
e 57 91
e 57 113
e 57 142
e 58 106
e 58 130
e 59 63
e 59 79
e 59 149
e 60 78
e 60 120
e 60 121
e 60 150
e 61 133
e 61 160
e 62 154
e 63 138
e 64 94
e 64 157
e 65 98
e 65 127
e 66 68
e 66 70
e 66 109
e 66 144
e 66 147
e 67 91
e 67 151
e 68 104
e 69 115
e 69 147
e 69 158
e 70 77
e 70 126
e 70 159
e 72 102
e 72 103
e 73 112
e 74 125
e 74 135
e 74 141
e 75 104
e 75 109
e 76 77
e 76 114
e 77 114
e 77 159
e 78 147
e 79 138
e 79 143
e 79 157
e 80 150
e 80 156
e 81 154
e 83 92
e 83 125
e 83 132
e 83 141
e 84 105
e 84 118
e 85 88
e 85 100
e 85 132
e 85 136
e 85 154
e 86 88
e 86 89
e 86 123
e 86 132
e 86 160
e 88 160
e 90 112
e 95 136
e 95 137
e 96 159
e 99 129
e 99 154
e 100 116
e 100 134
e 102 129
e 102 154
e 104 108
e 104 144
e 105 118
e 105 122
e 105 136
e 105 158
e 106 110
e 107 115
e 107 147
e 107 151
e 108 116
e 108 120
e 109 112
e 109 144
e 110 130
e 110 140
e 111 133
e 111 154
e 112 159
e 114 159
e 115 158
e 116 120
e 116 134
e 117 143
e 122 161
e 123 160
e 124 146
e 125 141
e 127 141
e 127 148
e 127 152
e 128 145
e 136 161
e 138 142
e 143 157
e 146 150
e 147 151
e 148 152
e 150 156
e 152 154
e 155 158
